NAME: rue_25_5
TYPE: TSP
DIMENSION: 25
EDGE_WEIGHT_TYPE: EUC_2D
NODE_COORD_SECTION
1 49 86
2 97 42
3 12 65
4 34 7
5 95 20
6 5 3
7 71 80
8 71 31
9 23 36
10 6 27
11 3 61
12 96 67
13 72 77
14 69 97
15 79 68
16 36 3
17 93 11
18 92 52
19 27 1
20 91 94
21 7 94
22 21 95
23 44 1
24 32 12
25 50 31
